hw5/hw5_2.out
x [*] :=
A  1
B  1
C  1
D  1
E  1
F  1
G  0
H  0
I  0
J  0
;

Size = 6

